r = [
0,7,93,41,95,44,38,72,5,27,38,0
];
p = [
0,12,21,15,3,9,4,2,13,8,18,0
];
e = [
0,6,12,13,20,8,11,16,5,6,15,0
];
d = [
0,19,114,56,101,55,48,80,18,35,56,116
];
d_bar = [
0,20,116,58,102,56,49,81,19,36,58,116
];
w = [
0,6,6,6.5,20,8,11,16,5,6,7.5,0
];
